p cnf 436 1569
1 2 3 4 0
-1 -2 0
-1 -3 0
-1 -4 0
-2 -3 0
-2 -4 0
-3 -4 0
5 -6 -7 0
6 -5 -7 0
-5 -6 7 0
6 5 7 0
-1 -7 0
6 -5 -8 0
5 -6 -8 0
8 -6 -5 0
8 6 5 0
-2 8 0
-3 8 0
-4 8 0
9 -10 -11 0
10 -9 -11 0
-9 -10 11 0
10 9 11 0
-1 -11 0
10 -12 -13 0
12 -10 -13 0
13 -10 -12 0
13 10 12 0
-2 13 0
-5 14 0
-9 14 0
-12 14 0
5 9 12 -14 0
10 -14 -15 0
-10 14 -15 0
-10 -14 15 0
10 14 15 0
-3 15 0
5 16 0
9 16 0
12 16 0
-5 -9 -12 -16 0
-10 16 -17 0
10 -16 -17 0
17 -16 -10 0
10 16 17 0
-4 -17 0
12 -18 -19 0
18 -12 -19 0
-12 -18 19 0
12 18 19 0
-1 -19 0
-5 18 -20 0
5 -18 -20 0
20 -18 -5 0
20 18 5 0
-2 20 0
-5 21 0
-12 21 0
5 12 -21 0
18 -21 -22 0
-18 21 -22 0
-18 -21 22 0
18 21 22 0
-3 22 0
5 23 0
12 23 0
-5 -12 -23 0
-18 23 -24 0
18 -23 -24 0
24 -23 -18 0
18 23 24 0
-4 -24 0
25 -26 -27 0
26 -25 -27 0
-25 -26 27 0
26 25 27 0
-1 -27 0
26 -28 -29 0
28 -26 -29 0
29 -26 -28 0
29 26 28 0
-2 29 0
-25 30 0
-28 30 0
-31 30 0
25 28 31 -30 0
26 -30 -32 0
-26 30 -32 0
-26 -30 32 0
26 30 32 0
-3 32 0
25 33 0
28 33 0
31 33 0
-25 -28 -31 -33 0
-26 33 -34 0
26 -33 -34 0
34 -33 -26 0
26 33 34 0
-4 -34 0
28 -35 -36 0
35 -28 -36 0
-28 -35 36 0
28 35 36 0
-1 -36 0
35 -31 -37 0
31 -35 -37 0
37 -35 -31 0
37 35 31 0
-2 37 0
35 -30 -38 0
30 -35 -38 0
-30 -35 38 0
35 30 38 0
-3 38 0
33 -35 -39 0
35 -33 -39 0
39 -33 -35 0
35 33 39 0
-4 -39 0
31 -40 -41 0
40 -31 -41 0
-31 -40 41 0
31 40 41 0
-1 -41 0
-25 40 -42 0
25 -40 -42 0
42 -40 -25 0
42 40 25 0
-2 42 0
40 -30 -43 0
30 -40 -43 0
-30 -40 43 0
40 30 43 0
-3 43 0
33 -40 -44 0
40 -33 -44 0
44 -33 -40 0
40 33 44 0
-4 -44 0
45 -46 -47 0
46 -45 -47 0
-45 -46 47 0
46 45 47 0
-1 -47 0
-31 46 -48 0
31 -46 -48 0
48 -46 -31 0
48 46 31 0
-2 48 0
-25 49 0
-28 49 0
-31 49 0
-45 49 0
25 28 31 45 -49 0
46 -49 -50 0
-46 49 -50 0
-46 -49 50 0
46 49 50 0
-3 50 0
25 51 0
28 51 0
31 51 0
45 51 0
-52 0
-46 51 -53 0
46 -51 -53 0
53 -51 -46 0
46 51 53 0
-4 -53 0
54 -55 -56 0
55 -54 -56 0
-54 -55 56 0
55 54 56 0
-1 -56 0
55 -57 -58 0
57 -55 -58 0
58 -55 -57 0
58 55 57 0
-2 58 0
-54 59 0
-57 59 0
-60 59 0
-61 59 0
54 57 60 61 -59 0
55 -59 -62 0
-55 59 -62 0
-55 -59 62 0
55 59 62 0
-3 62 0
54 63 0
57 63 0
60 63 0
61 63 0
-64 0
-55 63 -65 0
55 -63 -65 0
65 -63 -55 0
55 63 65 0
-4 -65 0
57 -66 -67 0
66 -57 -67 0
-57 -66 67 0
57 66 67 0
-1 -67 0
66 -60 -68 0
60 -66 -68 0
68 -66 -60 0
68 66 60 0
-2 68 0
-57 69 0
-60 69 0
-61 69 0
57 60 61 -69 0
66 -69 -70 0
-66 69 -70 0
-66 -69 70 0
66 69 70 0
-3 70 0
57 71 0
60 71 0
61 71 0
-57 -60 -61 -71 0
-66 71 -72 0
66 -71 -72 0
72 -71 -66 0
66 71 72 0
-4 -72 0
60 -73 -74 0
73 -60 -74 0
-60 -73 74 0
60 73 74 0
-1 -74 0
73 -61 -75 0
61 -73 -75 0
75 -73 -61 0
75 73 61 0
-2 75 0
-60 76 0
-61 76 0
60 61 -76 0
73 -76 -77 0
-73 76 -77 0
-73 -76 77 0
73 76 77 0
-3 77 0
60 78 0
61 78 0
-60 -61 -78 0
-73 78 -79 0
73 -78 -79 0
79 -78 -73 0
73 78 79 0
-4 -79 0
61 -80 -81 0
80 -61 -81 0
-61 -80 81 0
61 80 81 0
-1 -81 0
-60 80 -82 0
60 -80 -82 0
82 -80 -60 0
82 80 60 0
-2 82 0
-61 83 0
-60 83 0
61 60 -83 0
80 -83 -84 0
-80 83 -84 0
-80 -83 84 0
80 83 84 0
-3 84 0
61 85 0
60 85 0
-60 -61 -85 0
-80 85 -86 0
80 -85 -86 0
86 -85 -80 0
80 85 86 0
-4 -86 0
87 -88 -89 0
88 -87 -89 0
-87 -88 89 0
88 87 89 0
-1 -89 0
88 -90 -91 0
90 -88 -91 0
91 -88 -90 0
91 88 90 0
-2 91 0
-87 92 0
-90 92 0
-93 92 0
-94 92 0
-95 92 0
-96 92 0
-97 92 0
-98 92 0
99 0
88 -92 -100 0
-88 92 -100 0
-88 -92 100 0
88 92 100 0
-3 100 0
87 101 0
90 101 0
93 101 0
94 101 0
95 101 0
96 101 0
97 101 0
98 101 0
-102 0
-88 101 -103 0
88 -101 -103 0
103 -101 -88 0
88 101 103 0
-4 -103 0
90 -104 -105 0
104 -90 -105 0
-90 -104 105 0
90 104 105 0
-1 -105 0
104 -93 -106 0
93 -104 -106 0
106 -104 -93 0
106 104 93 0
-2 106 0
-90 107 0
-93 107 0
-94 107 0
-95 107 0
-96 107 0
-97 107 0
-98 107 0
108 0
104 -107 -109 0
-104 107 -109 0
-104 -107 109 0
104 107 109 0
-3 109 0
90 110 0
93 110 0
94 110 0
95 110 0
96 110 0
97 110 0
98 110 0
-111 0
-104 110 -112 0
104 -110 -112 0
112 -110 -104 0
104 110 112 0
-4 -112 0
93 -113 -114 0
113 -93 -114 0
-93 -113 114 0
93 113 114 0
-1 -114 0
113 -94 -115 0
94 -113 -115 0
115 -113 -94 0
115 113 94 0
-2 115 0
-93 116 0
-94 116 0
-95 116 0
-96 116 0
-97 116 0
-98 116 0
117 0
113 -116 -118 0
-113 116 -118 0
-113 -116 118 0
113 116 118 0
-3 118 0
93 119 0
94 119 0
95 119 0
96 119 0
97 119 0
98 119 0
-120 0
-113 119 -121 0
113 -119 -121 0
121 -119 -113 0
113 119 121 0
-4 -121 0
94 -122 -123 0
122 -94 -123 0
-94 -122 123 0
94 122 123 0
-1 -123 0
122 -95 -124 0
95 -122 -124 0
124 -122 -95 0
124 122 95 0
-2 124 0
-94 125 0
-95 125 0
-96 125 0
-97 125 0
-98 125 0
94 95 96 97 98 -125 0
122 -125 -126 0
-122 125 -126 0
-122 -125 126 0
122 125 126 0
-3 126 0
94 127 0
95 127 0
96 127 0
97 127 0
98 127 0
-128 0
-122 127 -129 0
122 -127 -129 0
129 -127 -122 0
122 127 129 0
-4 -129 0
95 -130 -131 0
130 -95 -131 0
-95 -130 131 0
95 130 131 0
-1 -131 0
130 -96 -132 0
96 -130 -132 0
132 -130 -96 0
132 130 96 0
-2 132 0
-95 133 0
-96 133 0
-97 133 0
-98 133 0
95 96 97 98 -133 0
130 -133 -134 0
-130 133 -134 0
-130 -133 134 0
130 133 134 0
-3 134 0
95 135 0
96 135 0
97 135 0
98 135 0
-136 0
-130 135 -137 0
130 -135 -137 0
137 -135 -130 0
130 135 137 0
-4 -137 0
96 -138 -139 0
138 -96 -139 0
-96 -138 139 0
96 138 139 0
-1 -139 0
138 -97 -140 0
97 -138 -140 0
140 -138 -97 0
140 138 97 0
-2 140 0
138 -133 -141 0
133 -138 -141 0
-133 -138 141 0
138 133 141 0
-3 141 0
135 -138 -142 0
138 -135 -142 0
142 -135 -138 0
138 135 142 0
-4 -142 0
97 -143 -144 0
143 -97 -144 0
-97 -143 144 0
97 143 144 0
-1 -144 0
143 -98 -145 0
98 -143 -145 0
145 -143 -98 0
145 143 98 0
-2 145 0
143 -133 -146 0
133 -143 -146 0
-133 -143 146 0
143 133 146 0
-3 146 0
135 -143 -147 0
143 -135 -147 0
147 -135 -143 0
143 135 147 0
-4 -147 0
98 -148 -149 0
148 -98 -149 0
-98 -148 149 0
98 148 149 0
-1 -149 0
-95 148 -150 0
95 -148 -150 0
150 -148 -95 0
150 148 95 0
-2 150 0
148 -133 -151 0
133 -148 -151 0
-133 -148 151 0
148 133 151 0
-3 151 0
135 -148 -152 0
148 -135 -152 0
152 -135 -148 0
148 135 152 0
-4 -152 0
153 -154 -155 0
154 -153 -155 0
-153 -154 155 0
154 153 155 0
-1 -155 0
154 -156 -157 0
156 -154 -157 0
157 -154 -156 0
157 154 156 0
-2 157 0
-95 158 0
-96 158 0
-97 158 0
-98 158 0
-153 158 0
-156 158 0
159 0
154 -158 -160 0
-154 158 -160 0
-154 -158 160 0
154 158 160 0
-3 160 0
95 161 0
96 161 0
97 161 0
98 161 0
153 161 0
156 161 0
-162 0
-154 161 -163 0
154 -161 -163 0
163 -161 -154 0
154 161 163 0
-4 -163 0
156 -164 -165 0
164 -156 -165 0
-156 -164 165 0
156 164 165 0
-1 -165 0
-96 164 -166 0
96 -164 -166 0
166 -164 -96 0
166 164 96 0
-2 166 0
-95 167 0
-96 167 0
-97 167 0
-98 167 0
-156 167 0
95 96 97 98 156 -167 0
164 -167 -168 0
-164 167 -168 0
-164 -167 168 0
164 167 168 0
-3 168 0
95 169 0
96 169 0
97 169 0
98 169 0
156 169 0
-170 0
-164 169 -171 0
164 -169 -171 0
171 -169 -164 0
164 169 171 0
-4 -171 0
172 -173 -174 0
173 -172 -174 0
-172 -173 174 0
173 172 174 0
-1 -174 0
173 -175 -176 0
175 -173 -176 0
176 -173 -175 0
176 173 175 0
-2 176 0
-172 177 0
-175 177 0
-178 177 0
-179 177 0
-180 177 0
-181 177 0
-182 177 0
183 0
173 -177 -184 0
-173 177 -184 0
-173 -177 184 0
173 177 184 0
-3 184 0
172 185 0
175 185 0
178 185 0
179 185 0
180 185 0
181 185 0
182 185 0
-186 0
-173 185 -187 0
173 -185 -187 0
187 -185 -173 0
173 185 187 0
-4 -187 0
175 -188 -189 0
188 -175 -189 0
-175 -188 189 0
175 188 189 0
-1 -189 0
188 -178 -190 0
178 -188 -190 0
190 -188 -178 0
190 188 178 0
-2 190 0
-175 191 0
-178 191 0
-179 191 0
-180 191 0
-181 191 0
-182 191 0
192 0
188 -191 -193 0
-188 191 -193 0
-188 -191 193 0
188 191 193 0
-3 193 0
175 194 0
178 194 0
179 194 0
180 194 0
181 194 0
182 194 0
-195 0
-188 194 -196 0
188 -194 -196 0
196 -194 -188 0
188 194 196 0
-4 -196 0
178 -197 -198 0
197 -178 -198 0
-178 -197 198 0
178 197 198 0
-1 -198 0
197 -179 -199 0
179 -197 -199 0
199 -197 -179 0
199 197 179 0
-2 199 0
-178 200 0
-179 200 0
-180 200 0
-181 200 0
-182 200 0
178 179 180 181 182 -200 0
197 -200 -201 0
-197 200 -201 0
-197 -200 201 0
197 200 201 0
-3 201 0
178 202 0
179 202 0
180 202 0
181 202 0
182 202 0
-203 0
-197 202 -204 0
197 -202 -204 0
204 -202 -197 0
197 202 204 0
-4 -204 0
179 -205 -206 0
205 -179 -206 0
-179 -205 206 0
179 205 206 0
-1 -206 0
205 -180 -207 0
180 -205 -207 0
207 -205 -180 0
207 205 180 0
-2 207 0
-179 208 0
-180 208 0
-181 208 0
-182 208 0
179 180 181 182 -208 0
205 -208 -209 0
-205 208 -209 0
-205 -208 209 0
205 208 209 0
-3 209 0
179 210 0
180 210 0
181 210 0
182 210 0
-211 0
-205 210 -212 0
205 -210 -212 0
212 -210 -205 0
205 210 212 0
-4 -212 0
180 -213 -214 0
213 -180 -214 0
-180 -213 214 0
180 213 214 0
-1 -214 0
213 -181 -215 0
181 -213 -215 0
215 -213 -181 0
215 213 181 0
-2 215 0
213 -208 -216 0
208 -213 -216 0
-208 -213 216 0
213 208 216 0
-3 216 0
210 -213 -217 0
213 -210 -217 0
217 -210 -213 0
213 210 217 0
-4 -217 0
181 -218 -219 0
218 -181 -219 0
-181 -218 219 0
181 218 219 0
-1 -219 0
218 -182 -220 0
182 -218 -220 0
220 -218 -182 0
220 218 182 0
-2 220 0
218 -208 -221 0
208 -218 -221 0
-208 -218 221 0
218 208 221 0
-3 221 0
210 -218 -222 0
218 -210 -222 0
222 -210 -218 0
218 210 222 0
-4 -222 0
182 -223 -224 0
223 -182 -224 0
-182 -223 224 0
182 223 224 0
-1 -224 0
-179 223 -225 0
179 -223 -225 0
225 -223 -179 0
225 223 179 0
-2 225 0
223 -208 -226 0
208 -223 -226 0
-208 -223 226 0
223 208 226 0
-3 226 0
210 -223 -227 0
223 -210 -227 0
227 -210 -223 0
223 210 227 0
-4 -227 0
228 -229 -230 0
229 -228 -230 0
-228 -229 230 0
229 228 230 0
-1 -230 0
229 -231 -232 0
231 -229 -232 0
232 -229 -231 0
232 229 231 0
-2 232 0
-228 233 0
-231 233 0
228 231 -233 0
229 -233 -234 0
-229 233 -234 0
-229 -233 234 0
229 233 234 0
-3 234 0
228 235 0
231 235 0
-228 -231 -235 0
-229 235 -236 0
229 -235 -236 0
236 -235 -229 0
229 235 236 0
-4 -236 0
231 -237 -238 0
237 -231 -238 0
-231 -237 238 0
231 237 238 0
-1 -238 0
237 -231 -239 0
231 -237 -239 0
239 -237 -231 0
239 237 231 0
-2 239 0
-3 239 0
-4 239 0
240 -241 -242 0
241 -240 -242 0
-240 -241 242 0
241 240 242 0
-1 -242 0
-153 241 -243 0
153 -241 -243 0
243 -241 -153 0
243 241 153 0
-2 243 0
-95 244 0
-96 244 0
-97 244 0
-98 244 0
-153 244 0
-156 244 0
-240 244 0
245 0
241 -244 -246 0
-241 244 -246 0
-241 -244 246 0
241 244 246 0
-3 246 0
95 247 0
96 247 0
97 247 0
98 247 0
153 247 0
156 247 0
240 247 0
-248 0
-241 247 -249 0
241 -247 -249 0
249 -247 -241 0
241 247 249 0
-4 -249 0
250 -251 -252 0
251 -250 -252 0
-250 -251 252 0
251 250 252 0
-1 -252 0
251 -253 -254 0
253 -251 -254 0
254 -251 -253 0
254 251 253 0
-2 254 0
-228 255 0
-231 255 0
-250 255 0
-253 255 0
228 231 250 253 -255 0
251 -255 -256 0
-251 255 -256 0
-251 -255 256 0
251 255 256 0
-3 256 0
228 257 0
231 257 0
250 257 0
253 257 0
-258 0
-251 257 -259 0
251 -257 -259 0
259 -257 -251 0
251 257 259 0
-4 -259 0
253 -260 -261 0
260 -253 -261 0
-253 -260 261 0
253 260 261 0
-1 -261 0
-228 260 -262 0
228 -260 -262 0
262 -260 -228 0
262 260 228 0
-2 262 0
-228 263 0
-231 263 0
-253 263 0
228 231 253 -263 0
260 -263 -264 0
-260 263 -264 0
-260 -263 264 0
260 263 264 0
-3 264 0
228 265 0
231 265 0
253 265 0
-228 -231 -253 -265 0
-260 265 -266 0
260 -265 -266 0
266 -265 -260 0
260 265 266 0
-4 -266 0
267 -268 -269 0
268 -267 -269 0
-267 -268 269 0
268 267 269 0
-1 -269 0
268 -270 -271 0
270 -268 -271 0
271 -268 -270 0
271 268 270 0
-2 271 0
-179 272 0
-180 272 0
-181 272 0
-182 272 0
-267 272 0
-270 272 0
273 0
268 -272 -274 0
-268 272 -274 0
-268 -272 274 0
268 272 274 0
-3 274 0
179 275 0
180 275 0
181 275 0
182 275 0
267 275 0
270 275 0
-276 0
-268 275 -277 0
268 -275 -277 0
277 -275 -268 0
268 275 277 0
-4 -277 0
270 -278 -279 0
278 -270 -279 0
-270 -278 279 0
270 278 279 0
-1 -279 0
-180 278 -280 0
180 -278 -280 0
280 -278 -180 0
280 278 180 0
-2 280 0
-179 281 0
-180 281 0
-181 281 0
-182 281 0
-270 281 0
179 180 181 182 270 -281 0
278 -281 -282 0
-278 281 -282 0
-278 -281 282 0
278 281 282 0
-3 282 0
179 283 0
180 283 0
181 283 0
182 283 0
270 283 0
-284 0
-278 283 -285 0
278 -283 -285 0
285 -283 -278 0
278 283 285 0
-4 -285 0
286 -287 -288 0
287 -286 -288 0
-286 -287 288 0
287 286 288 0
-1 -288 0
-54 287 -289 0
54 -287 -289 0
289 -287 -54 0
289 287 54 0
-2 289 0
-54 290 0
-57 290 0
-60 290 0
-61 290 0
-286 290 0
54 57 60 61 286 -290 0
287 -290 -291 0
-287 290 -291 0
-287 -290 291 0
287 290 291 0
-3 291 0
54 292 0
57 292 0
60 292 0
61 292 0
286 292 0
-293 0
-287 292 -294 0
287 -292 -294 0
294 -292 -287 0
287 292 294 0
-4 -294 0
295 -296 -297 0
296 -295 -297 0
-295 -296 297 0
296 295 297 0
-1 -297 0
-97 296 -298 0
97 -296 -298 0
298 -296 -97 0
298 296 97 0
-2 298 0
-95 299 0
-96 299 0
-97 299 0
-98 299 0
-295 299 0
95 96 97 98 295 -299 0
296 -299 -300 0
-296 299 -300 0
-296 -299 300 0
296 299 300 0
-3 300 0
95 301 0
96 301 0
97 301 0
98 301 0
295 301 0
-302 0
-296 301 -303 0
296 -301 -303 0
303 -301 -296 0
296 301 303 0
-4 -303 0
304 -305 -306 0
305 -304 -306 0
-304 -305 306 0
305 304 306 0
-1 -306 0
305 -307 -308 0
307 -305 -308 0
308 -305 -307 0
308 305 307 0
-2 308 0
-95 309 0
-96 309 0
-97 309 0
-98 309 0
-156 309 0
-304 309 0
-307 309 0
310 0
305 -309 -311 0
-305 309 -311 0
-305 -309 311 0
305 309 311 0
-3 311 0
95 312 0
96 312 0
97 312 0
98 312 0
156 312 0
304 312 0
307 312 0
-313 0
-305 312 -314 0
305 -312 -314 0
314 -312 -305 0
305 312 314 0
-4 -314 0
307 -315 -316 0
315 -307 -316 0
-307 -315 316 0
307 315 316 0
-1 -316 0
-156 315 -317 0
156 -315 -317 0
317 -315 -156 0
317 315 156 0
-2 317 0
-95 318 0
-96 318 0
-97 318 0
-98 318 0
-156 318 0
-307 318 0
319 0
315 -318 -320 0
-315 318 -320 0
-315 -318 320 0
315 318 320 0
-3 320 0
95 321 0
96 321 0
97 321 0
98 321 0
156 321 0
307 321 0
-322 0
-315 321 -323 0
315 -321 -323 0
323 -321 -315 0
315 321 323 0
-4 -323 0
324 -325 -326 0
325 -324 -326 0
-324 -325 326 0
325 324 326 0
-1 -326 0
325 -327 -328 0
327 -325 -328 0
328 -325 -327 0
328 325 327 0
-2 328 0
-25 329 0
-28 329 0
-31 329 0
-45 329 0
-324 329 0
-327 329 0
-330 329 0
331 0
325 -329 -332 0
-325 329 -332 0
-325 -329 332 0
325 329 332 0
-3 332 0
25 333 0
28 333 0
31 333 0
45 333 0
324 333 0
327 333 0
330 333 0
-334 0
-325 333 -335 0
325 -333 -335 0
335 -333 -325 0
325 333 335 0
-4 -335 0
327 -336 -337 0
336 -327 -337 0
-327 -336 337 0
327 336 337 0
-1 -337 0
336 -330 -338 0
330 -336 -338 0
338 -336 -330 0
338 336 330 0
-2 338 0
-25 339 0
-28 339 0
-31 339 0
-45 339 0
-327 339 0
-330 339 0
25 28 31 45 327 330 -339 0
336 -339 -340 0
-336 339 -340 0
-336 -339 340 0
336 339 340 0
-3 340 0
25 341 0
28 341 0
31 341 0
45 341 0
327 341 0
330 341 0
-342 0
-336 341 -343 0
336 -341 -343 0
343 -341 -336 0
336 341 343 0
-4 -343 0
330 -344 -345 0
344 -330 -345 0
-330 -344 345 0
330 344 345 0
-1 -345 0
-45 344 -346 0
45 -344 -346 0
346 -344 -45 0
346 344 45 0
-2 346 0
-25 347 0
-28 347 0
-31 347 0
-45 347 0
-330 347 0
25 28 31 45 330 -347 0
344 -347 -348 0
-344 347 -348 0
-344 -347 348 0
344 347 348 0
-3 348 0
25 349 0
28 349 0
31 349 0
45 349 0
330 349 0
-350 0
-344 349 -351 0
344 -349 -351 0
351 -349 -344 0
344 349 351 0
-4 -351 0
352 -353 -354 0
353 -352 -354 0
-352 -353 354 0
353 352 354 0
-1 -354 0
-57 353 -355 0
57 -353 -355 0
355 -353 -57 0
355 353 57 0
-2 355 0
-57 356 0
-60 356 0
-61 356 0
-352 356 0
57 60 61 352 -356 0
353 -356 -357 0
-353 356 -357 0
-353 -356 357 0
353 356 357 0
-3 357 0
57 358 0
60 358 0
61 358 0
352 358 0
-359 0
-353 358 -360 0
353 -358 -360 0
360 -358 -353 0
353 358 360 0
-4 -360 0
361 -362 -363 0
362 -361 -363 0
-361 -362 363 0
362 361 363 0
-1 -363 0
362 -364 -365 0
364 -362 -365 0
365 -362 -364 0
365 362 364 0
-2 365 0
-361 366 0
-364 366 0
-367 366 0
-368 366 0
-369 366 0
-370 366 0
-371 366 0
372 0
362 -366 -373 0
-362 366 -373 0
-362 -366 373 0
362 366 373 0
-3 373 0
361 374 0
364 374 0
367 374 0
368 374 0
369 374 0
370 374 0
371 374 0
-375 0
-362 374 -376 0
362 -374 -376 0
376 -374 -362 0
362 374 376 0
-4 -376 0
364 -377 -378 0
377 -364 -378 0
-364 -377 378 0
364 377 378 0
-1 -378 0
377 -367 -379 0
367 -377 -379 0
379 -377 -367 0
379 377 367 0
-2 379 0
-364 380 0
-367 380 0
-368 380 0
-369 380 0
-370 380 0
-371 380 0
381 0
377 -380 -382 0
-377 380 -382 0
-377 -380 382 0
377 380 382 0
-3 382 0
364 383 0
367 383 0
368 383 0
369 383 0
370 383 0
371 383 0
-384 0
-377 383 -385 0
377 -383 -385 0
385 -383 -377 0
377 383 385 0
-4 -385 0
367 -386 -387 0
386 -367 -387 0
-367 -386 387 0
367 386 387 0
-1 -387 0
386 -368 -388 0
368 -386 -388 0
388 -386 -368 0
388 386 368 0
-2 388 0
-367 389 0
-368 389 0
-369 389 0
-370 389 0
-371 389 0
367 368 369 370 371 -389 0
386 -389 -390 0
-386 389 -390 0
-386 -389 390 0
386 389 390 0
-3 390 0
367 391 0
368 391 0
369 391 0
370 391 0
371 391 0
-392 0
-386 391 -393 0
386 -391 -393 0
393 -391 -386 0
386 391 393 0
-4 -393 0
368 -394 -395 0
394 -368 -395 0
-368 -394 395 0
368 394 395 0
-1 -395 0
394 -369 -396 0
369 -394 -396 0
396 -394 -369 0
396 394 369 0
-2 396 0
-368 397 0
-369 397 0
-370 397 0
-371 397 0
368 369 370 371 -397 0
394 -397 -398 0
-394 397 -398 0
-394 -397 398 0
394 397 398 0
-3 398 0
368 399 0
369 399 0
370 399 0
371 399 0
-400 0
-394 399 -401 0
394 -399 -401 0
401 -399 -394 0
394 399 401 0
-4 -401 0
369 -402 -403 0
402 -369 -403 0
-369 -402 403 0
369 402 403 0
-1 -403 0
402 -370 -404 0
370 -402 -404 0
404 -402 -370 0
404 402 370 0
-2 404 0
-369 405 0
-370 405 0
-371 405 0
369 370 371 -405 0
402 -405 -406 0
-402 405 -406 0
-402 -405 406 0
402 405 406 0
-3 406 0
369 407 0
370 407 0
371 407 0
-369 -370 -371 -407 0
-402 407 -408 0
402 -407 -408 0
408 -407 -402 0
402 407 408 0
-4 -408 0
370 -409 -410 0
409 -370 -410 0
-370 -409 410 0
370 409 410 0
-1 -410 0
409 -371 -411 0
371 -409 -411 0
411 -409 -371 0
411 409 371 0
-2 411 0
409 -405 -412 0
405 -409 -412 0
-405 -409 412 0
409 405 412 0
-3 412 0
407 -409 -413 0
409 -407 -413 0
413 -407 -409 0
409 407 413 0
-4 -413 0
371 -414 -415 0
414 -371 -415 0
-371 -414 415 0
371 414 415 0
-1 -415 0
-369 414 -416 0
369 -414 -416 0
416 -414 -369 0
416 414 369 0
-2 416 0
414 -405 -417 0
405 -414 -417 0
-405 -414 417 0
414 405 417 0
-3 417 0
407 -414 -418 0
414 -407 -418 0
418 -407 -414 0
414 407 418 0
-4 -418 0
419 -420 -421 0
420 -419 -421 0
-419 -420 421 0
420 419 421 0
-1 -421 0
420 -422 -423 0
422 -420 -423 0
423 -420 -422 0
423 420 422 0
-2 423 0
-369 424 0
-370 424 0
-371 424 0
-419 424 0
-422 424 0
369 370 371 419 422 -424 0
420 -424 -425 0
-420 424 -425 0
-420 -424 425 0
420 424 425 0
-3 425 0
369 426 0
370 426 0
371 426 0
419 426 0
422 426 0
-427 0
-420 426 -428 0
420 -426 -428 0
428 -426 -420 0
420 426 428 0
-4 -428 0
422 -429 -430 0
429 -422 -430 0
-422 -429 430 0
422 429 430 0
-1 -430 0
-370 429 -431 0
370 -429 -431 0
431 -429 -370 0
431 429 370 0
-2 431 0
-369 432 0
-370 432 0
-371 432 0
-422 432 0
369 370 371 422 -432 0
429 -432 -433 0
-429 432 -433 0
-429 -432 433 0
429 432 433 0
-3 433 0
369 434 0
370 434 0
371 434 0
422 434 0
-435 0
-429 434 -436 0
429 -434 -436 0
436 -434 -429 0
429 434 436 0
-4 -436 0
5 0
9 0
-12 0
25 0
28 0
-31 0
-45 0
-54 0
-57 0
-60 0
61 0
-87 0
-90 0
-93 0
-94 0
-95 0
-96 0
-97 0
98 0
-153 0
156 0
-172 0
175 0
-178 0
-179 0
-180 0
181 0
182 0
228 0
-231 0
240 0
250 0
-253 0
-267 0
270 0
-286 0
295 0
304 0
307 0
-324 0
-327 0
-330 0
352 0
361 0
364 0
-367 0
368 0
-369 0
370 0
-371 0
-419 0
422 0
6 0
-10 0
-26 0
-46 0
-55 0
-73 0
-88 0
-154 0
-173 0
-229 0
-237 0
-241 0
-251 0
-268 0
-287 0
-296 0
-305 0
-325 0
-336 0
-353 0
-362 0
-420 0
